<instance format="XCSP3" type="CSP">
  <variables>
    <array id="grid_vars" size="[9][9]"> 1..9 </array>
  </variables>
  <constraints>
    <intension> eq(grid_vars[0][0],5) </intension>
    <intension> eq(grid_vars[0][1],3) </intension>
    <intension> eq(grid_vars[0][4],7) </intension>
    <intension> eq(grid_vars[1][0],6) </intension>
    <intension> eq(grid_vars[1][3],1) </intension>
    <intension> eq(grid_vars[1][4],9) </intension>
    <intension> eq(grid_vars[1][5],5) </intension>
    <intension> eq(grid_vars[2][1],9) </intension>
    <intension> eq(grid_vars[2][2],8) </intension>
    <intension> eq(grid_vars[2][7],6) </intension>
    <intension> eq(grid_vars[3][0],8) </intension>
    <intension> eq(grid_vars[3][4],6) </intension>
    <intension> eq(grid_vars[3][8],3) </intension>
    <intension> eq(grid_vars[4][0],4) </intension>
    <intension> eq(grid_vars[4][3],8) </intension>
    <intension> eq(grid_vars[4][5],3) </intension>
    <intension> eq(grid_vars[4][8],1) </intension>
    <intension> eq(grid_vars[5][0],7) </intension>
    <intension> eq(grid_vars[5][4],2) </intension>
    <intension> eq(grid_vars[5][8],6) </intension>
    <intension> eq(grid_vars[6][1],6) </intension>
    <intension> eq(grid_vars[6][6],2) </intension>
    <intension> eq(grid_vars[6][7],8) </intension>
    <intension> eq(grid_vars[7][3],4) </intension>
    <intension> eq(grid_vars[7][4],1) </intension>
    <intension> eq(grid_vars[7][5],9) </intension>
    <intension> eq(grid_vars[7][8],5) </intension>
    <intension> eq(grid_vars[8][4],8) </intension>
    <intension> eq(grid_vars[8][7],7) </intension>
    <intension> eq(grid_vars[8][8],9) </intension>
    <allDifferent> grid_vars[0][] </allDifferent>
    <allDifferent> grid_vars[1][] </allDifferent>
    <allDifferent> grid_vars[2][] </allDifferent>
    <allDifferent> grid_vars[3][] </allDifferent>
    <allDifferent> grid_vars[4][] </allDifferent>
    <allDifferent> grid_vars[5][] </allDifferent>
    <allDifferent> grid_vars[6][] </allDifferent>
    <allDifferent> grid_vars[7][] </allDifferent>
    <allDifferent> grid_vars[8][] </allDifferent>
    <allDifferent> grid_vars[][0] </allDifferent>
    <allDifferent> grid_vars[][1] </allDifferent>
    <allDifferent> grid_vars[][2] </allDifferent>
    <allDifferent> grid_vars[][3] </allDifferent>
    <allDifferent> grid_vars[][4] </allDifferent>
    <allDifferent> grid_vars[][5] </allDifferent>
    <allDifferent> grid_vars[][6] </allDifferent>
    <allDifferent> grid_vars[][7] </allDifferent>
    <allDifferent> grid_vars[][8] </allDifferent>
    <allDifferent> grid_vars[0..2][0..2] </allDifferent>
    <allDifferent> grid_vars[0..2][3..5] </allDifferent>
    <allDifferent> grid_vars[0..2][6..8] </allDifferent>
    <allDifferent> grid_vars[3..5][0..2] </allDifferent>
    <allDifferent> grid_vars[3..5][3..5] </allDifferent>
    <allDifferent> grid_vars[3..5][6..8] </allDifferent>
    <allDifferent> grid_vars[6..8][0..2] </allDifferent>
    <allDifferent> grid_vars[6..8][3..5] </allDifferent>
    <allDifferent> grid_vars[6..8][6..8] </allDifferent>
  </constraints>
</instance>
